6227
9327
4482
7950
6124
3616
8093
5575
2874
1844
8404
2747
5926
9885
6118
1279
4939
8421
5886
3387
9880
8218
5156
6568
6945
8616
4627
2329
10150
2275
512
1582
6541
2937
4213
9920
6312
1036
3760
6848
3059
8339
6620
6851
3340
7012
3583
894
6012
10175
